NAME: template1.png
TYPE: TSP
DIMENSION: 584
EDGE_WEIGHT_TYPE: EUC_2D
NODE_COORD_SECTION
1 6.5 58.5
2 18.5 58.5
3 31.5 58.5
4 44.5 58.5
5 57.5 58.5
6 70.5 58.5
7 96.5 58.5
8 109.5 58.5
9 122.5 58.5
10 135.5 58.5
11 148.5 58.5
12 161.5 58.5
13 174.5 58.5
14 187.5 58.5
15 200.5 58.5
16 226.5 58.5
17 239.5 58.5
18 252.5 58.5
19 265.5 58.5
20 278.5 58.5
21 291.5 58.5
22 304.5 58.5
23 317.5 58.5
24 330.5 58.5
25 356.5 58.5
26 369.5 58.5
27 382.5 58.5
28 395.5 58.5
29 408.5 58.5
30 421.5 58.5
31 434.5 58.5
32 447.5 58.5
33 460.5 58.5
34 486.5 58.5
35 499.5 58.5
36 512.5 58.5
37 525.5 58.5
38 537.5 58.5
39 550.5 58.5
40 563.5 58.5
41 576.5 58.5
42 589.5 58.5
43 615.5 58.5
44 628.5 58.5
45 641.5 58.5
46 654.5 58.5
47 667.5 58.5
48 680.5 58.5
49 693.5 58.5
50 706.5 58.5
51 719.5 58.5
52 745.5 58.5
53 758.5 58.5
54 771.5 58.5
55 784.5 58.5
56 797.5 58.5
57 810.5 58.5
58 823.5 58.5
59 836.5 58.5
60 849.5 58.5
61 875.5 58.5
62 888.5 58.5
63 901.5 58.5
64 914.5 58.5
65 252.5 109.5
66 330.5 161.5
67 6.5 188.5
68 18.5 188.5
69 31.5 188.5
70 44.5 188.5
71 57.5 188.5
72 70.5 188.5
73 96.5 188.5
74 109.5 188.5
75 148.5 188.5
76 161.5 188.5
77 174.5 188.5
78 187.5 188.5
79 200.5 188.5
80 226.5 188.5
81 239.5 188.5
82 252.5 188.5
83 265.5 188.5
84 278.5 188.5
85 317.5 188.5
86 330.5 188.5
87 356.5 188.5
88 369.5 188.5
89 382.5 188.5
90 395.5 188.5
91 408.5 188.5
92 421.5 188.5
93 460.5 188.5
94 485.5 188.5
95 498.5 188.5
96 511.5 188.5
97 524.5 188.5
98 537.5 188.5
99 550.5 188.5
100 563.5 188.5
101 576.5 188.5
102 589.5 188.5
103 615.5 188.5
104 628.5 188.5
105 641.5 188.5
106 654.5 188.5
107 667.5 188.5
108 680.5 188.5
109 693.5 188.5
110 706.5 188.5
111 719.5 188.5
112 745.5 188.5
113 758.5 188.5
114 771.5 188.5
115 784.5 188.5
116 797.5 188.5
117 810.5 188.5
118 823.5 188.5
119 836.5 188.5
120 849.5 188.5
121 875.5 188.5
122 888.5 188.5
123 901.5 188.5
124 914.5 188.5
125 70.5 240.5
126 109.5 252.5
127 161.5 265.5
128 174.5 265.5
129 187.5 265.5
130 408.5 304.5
131 421.5 304.5
132 6.5 318.5
133 18.5 318.5
134 31.5 318.5
135 44.5 318.5
136 57.5 318.5
137 70.5 318.5
138 96.5 318.5
139 109.5 318.5
140 122.5 318.5
141 161.5 318.5
142 174.5 318.5
143 187.5 318.5
144 200.5 318.5
145 239.5 318.5
146 252.5 318.5
147 304.5 318.5
148 317.5 318.5
149 356.5 318.5
150 369.5 318.5
151 382.5 318.5
152 395.5 318.5
153 408.5 318.5
154 421.5 318.5
155 434.5 318.5
156 447.5 318.5
157 460.5 318.5
158 486.5 318.5
159 563.5 318.5
160 576.5 318.5
161 589.5 318.5
162 615.5 318.5
163 628.5 318.5
164 641.5 318.5
165 654.5 318.5
166 667.5 318.5
167 680.5 318.5
168 693.5 318.5
169 706.5 318.5
170 719.5 318.5
171 745.5 318.5
172 758.5 318.5
173 771.5 318.5
174 784.5 318.5
175 797.5 318.5
176 810.5 318.5
177 823.5 318.5
178 836.5 318.5
179 849.5 318.5
180 875.5 318.5
181 888.5 318.5
182 901.5 318.5
183 914.5 318.5
184 278.5 330.5
185 252.5 370.5
186 161.5 433.5
187 148.5 447.5
188 512.5 447.5
189 524.5 447.5
190 590.5 447.5
191 6.5 448.5
192 19.5 448.5
193 31.5 448.5
194 44.5 448.5
195 57.5 448.5
196 70.5 448.5
197 96.5 448.5
198 109.5 448.5
199 122.5 448.5
200 135.5 448.5
201 161.5 448.5
202 382.5 448.5
203 395.5 448.5
204 615.5 448.5
205 628.5 448.5
206 641.5 448.5
207 654.5 448.5
208 667.5 448.5
209 680.5 448.5
210 693.5 448.5
211 706.5 448.5
212 719.5 448.5
213 745.5 448.5
214 758.5 448.5
215 771.5 448.5
216 784.5 448.5
217 797.5 448.5
218 810.5 448.5
219 823.5 448.5
220 836.5 448.5
221 849.5 448.5
222 875.5 448.5
223 888.5 448.5
224 901.5 448.5
225 914.5 448.5
226 550.5 459.5
227 563.5 459.5
228 356.5 472.5
229 563.5 498.5
230 511.5 524.5
231 524.5 524.5
232 330.5 563.5
233 6.5 577.5
234 19.5 577.5
235 32.5 577.5
236 45.5 577.5
237 58.5 577.5
238 71.5 577.5
239 96.5 577.5
240 109.5 577.5
241 122.5 577.5
242 135.5 577.5
243 148.5 577.5
244 304.5 577.5
245 317.5 577.5
246 330.5 577.5
247 382.5 577.5
248 395.5 577.5
249 434.5 577.5
250 447.5 577.5
251 460.5 577.5
252 486.5 577.5
253 499.5 577.5
254 512.5 577.5
255 525.5 577.5
256 538.5 577.5
257 551.5 577.5
258 564.5 577.5
259 577.5 577.5
260 590.5 577.5
261 616.5 577.5
262 628.5 577.5
263 875.5 577.5
264 888.5 577.5
265 901.5 577.5
266 914.5 577.5
267 174.5 589.5
268 187.5 589.5
269 239.5 615.5
270 252.5 615.5
271 823.5 693.5
272 6.5 707.5
273 18.5 707.5
274 31.5 707.5
275 44.5 707.5
276 57.5 707.5
277 70.5 707.5
278 96.5 707.5
279 109.5 707.5
280 122.5 707.5
281 135.5 707.5
282 148.5 707.5
283 161.5 707.5
284 174.5 707.5
285 187.5 707.5
286 200.5 707.5
287 226.5 707.5
288 239.5 707.5
289 252.5 707.5
290 265.5 707.5
291 278.5 707.5
292 291.5 707.5
293 304.5 707.5
294 317.5 707.5
295 330.5 707.5
296 356.5 707.5
297 369.5 707.5
298 382.5 707.5
299 395.5 707.5
300 434.5 707.5
301 447.5 707.5
302 460.5 707.5
303 486.5 707.5
304 498.5 707.5
305 511.5 707.5
306 524.5 707.5
307 537.5 707.5
308 585.5 707.5
309 654.5 707.5
310 667.5 707.5
311 797.5 707.5
312 810.5 707.5
313 823.5 707.5
314 836.5 707.5
315 849.5 707.5
316 875.5 707.5
317 888.5 707.5
318 901.5 707.5
319 914.5 707.5
320 563.5 719.5
321 628.5 719.5
322 771.5 719.5
323 745.5 732.5
324 589.5 745.5
325 628.5 745.5
326 641.5 745.5
327 693.5 758.5
328 706.5 758.5
329 524.5 771.5
330 537.5 771.5
331 758.5 797.5
332 784.5 810.5
333 797.5 810.5
334 810.5 810.5
335 6.5 837.5
336 18.5 837.5
337 31.5 837.5
338 96.5 837.5
339 109.5 837.5
340 252.5 837.5
341 317.5 837.5
342 330.5 837.5
343 356.5 837.5
344 369.5 837.5
345 382.5 837.5
346 395.5 837.5
347 408.5 837.5
348 421.5 837.5
349 485.5 837.5
350 498.5 837.5
351 511.5 837.5
352 524.5 837.5
353 537.5 837.5
354 550.5 837.5
355 563.5 837.5
356 612.5 837.5
357 641.5 837.5
358 654.5 837.5
359 667.5 837.5
360 680.5 837.5
361 693.5 837.5
362 706.5 837.5
363 719.5 837.5
364 745.5 837.5
365 758.5 837.5
366 771.5 837.5
367 784.5 837.5
368 797.5 837.5
369 810.5 837.5
370 823.5 837.5
371 836.5 837.5
372 849.5 837.5
373 875.5 837.5
374 888.5 837.5
375 901.5 837.5
376 914.5 837.5
377 278.5 940.5
378 291.5 940.5
379 330.5 940.5
380 680.5 953.5
381 693.5 953.5
382 317.5 966.5
383 6.5 967.5
384 18.5 967.5
385 31.5 967.5
386 44.5 967.5
387 369.5 967.5
388 382.5 967.5
389 395.5 967.5
390 408.5 967.5
391 421.5 967.5
392 434.5 967.5
393 486.5 967.5
394 499.5 967.5
395 563.5 967.5
396 576.5 967.5
397 628.5 967.5
398 667.5 967.5
399 680.5 967.5
400 693.5 967.5
401 706.5 967.5
402 719.5 967.5
403 745.5 967.5
404 758.5 967.5
405 771.5 967.5
406 784.5 967.5
407 797.5 967.5
408 810.5 967.5
409 823.5 967.5
410 836.5 967.5
411 849.5 967.5
412 875.5 967.5
413 888.5 967.5
414 901.5 967.5
415 914.5 967.5
416 265.5 1004.5
417 278.5 1004.5
418 356.5 1004.5
419 96.5 1030.5
420 109.5 1030.5
421 122.5 1030.5
422 135.5 1030.5
423 148.5 1030.5
424 252.5 1030.5
425 550.5 1030.5
426 174.5 1043.5
427 187.5 1043.5
428 200.5 1043.5
429 226.5 1043.5
430 667.5 1043.5
431 680.5 1043.5
432 693.5 1043.5
433 706.5 1043.5
434 550.5 1056.5
435 511.5 1082.5
436 6.5 1096.5
437 19.5 1096.5
438 32.5 1096.5
439 45.5 1096.5
440 58.5 1096.5
441 71.5 1096.5
442 97.5 1096.5
443 317.5 1096.5
444 330.5 1096.5
445 485.5 1096.5
446 499.5 1096.5
447 512.5 1096.5
448 525.5 1096.5
449 538.5 1096.5
450 551.5 1096.5
451 564.5 1096.5
452 577.5 1096.5
453 590.5 1096.5
454 615.5 1096.5
455 628.5 1096.5
456 641.5 1096.5
457 654.5 1096.5
458 667.5 1096.5
459 110.5 1097.5
460 123.5 1097.5
461 136.5 1097.5
462 148.5 1097.5
463 161.5 1097.5
464 174.5 1097.5
465 187.5 1097.5
466 680.5 1097.5
467 693.5 1097.5
468 706.5 1097.5
469 719.5 1097.5
470 745.5 1097.5
471 6.5 1226.5
472 18.5 1226.5
473 31.5 1226.5
474 44.5 1226.5
475 57.5 1226.5
476 70.5 1226.5
477 96.5 1226.5
478 109.5 1226.5
479 122.5 1226.5
480 135.5 1226.5
481 148.5 1226.5
482 161.5 1226.5
483 174.5 1226.5
484 187.5 1226.5
485 200.5 1226.5
486 226.5 1226.5
487 239.5 1226.5
488 252.5 1226.5
489 265.5 1226.5
490 278.5 1226.5
491 291.5 1226.5
492 304.5 1226.5
493 317.5 1226.5
494 330.5 1226.5
495 408.5 1226.5
496 421.5 1226.5
497 525.5 1226.5
498 537.5 1226.5
499 550.5 1226.5
500 563.5 1226.5
501 576.5 1226.5
502 589.5 1226.5
503 615.5 1226.5
504 628.5 1226.5
505 641.5 1226.5
506 654.5 1226.5
507 667.5 1226.5
508 680.5 1226.5
509 693.5 1226.5
510 706.5 1226.5
511 719.5 1226.5
512 745.5 1226.5
513 758.5 1226.5
514 771.5 1226.5
515 784.5 1226.5
516 797.5 1226.5
517 810.5 1226.5
518 823.5 1226.5
519 836.5 1226.5
520 849.5 1226.5
521 875.5 1226.5
522 888.5 1226.5
523 901.5 1226.5
524 914.5 1226.5
525 330.5 1251.5
526 356.5 1264.5
527 382.5 1277.5
528 395.5 1277.5
529 408.5 1277.5
530 421.5 1277.5
531 498.5 1303.5
532 511.5 1303.5
533 6.5 1356.5
534 93.5 1356.5
535 122.5 1356.5
536 135.5 1356.5
537 148.5 1356.5
538 161.5 1356.5
539 174.5 1356.5
540 187.5 1356.5
541 200.5 1356.5
542 226.5 1356.5
543 239.5 1356.5
544 252.5 1356.5
545 265.5 1356.5
546 278.5 1356.5
547 291.5 1356.5
548 304.5 1356.5
549 317.5 1356.5
550 330.5 1356.5
551 356.5 1356.5
552 369.5 1356.5
553 382.5 1356.5
554 395.5 1356.5
555 408.5 1356.5
556 421.5 1356.5
557 434.5 1356.5
558 447.5 1356.5
559 460.5 1356.5
560 485.5 1356.5
561 498.5 1356.5
562 511.5 1356.5
563 524.5 1356.5
564 537.5 1356.5
565 550.5 1356.5
566 612.5 1356.5
567 667.5 1356.5
568 680.5 1356.5
569 693.5 1356.5
570 706.5 1356.5
571 719.5 1356.5
572 745.5 1356.5
573 758.5 1356.5
574 771.5 1356.5
575 784.5 1356.5
576 797.5 1356.5
577 810.5 1356.5
578 823.5 1356.5
579 836.5 1356.5
580 849.5 1356.5
581 875.5 1356.5
582 888.5 1356.5
583 901.5 1356.5
584 914.5 1356.5
EOF
